asp/input/in_40_20_6_1.lp
#const n = 40.
#const k = 20.
#const h = 6.
tile(1,8,11).
tile(2,4,10).
tile(3,8,2).
tile(4,9,6).
tile(5,13,5).
tile(6,7,8).
tile(7,20,5).
tile(8,9,4).
tile(9,4,10).
tile(10,1,11).
tile(11,20,7).
tile(12,4,10).
tile(13,17,16).
tile(14,13,18).
tile(15,13,13).
tile(16,20,3).
tile(17,5,4).
tile(18,11,18).
tile(19,4,10).
tile(20,2,18).
tile(21,11,9).
tile(22,4,11).
tile(23,5,6).
tile(24,2,20).
tile(25,8,7).
tile(26,15,10).
tile(27,19,3).
tile(28,14,16).
tile(29,1,20).
tile(30,5,16).
tile(31,16,18).
tile(32,17,20).
tile(33,19,7).
tile(34,3,15).
tile(35,8,2).
tile(36,11,5).
tile(37,16,19).
tile(38,20,11).
tile(39,8,15).
tile(40,15,1).
