instances/in_40_20_6_1.dzn
n = 40;
k = 20;
h = 6;
tiles = array2d(1..n, 1..2,
[ 8,11
, 4,10
, 8,2
, 9,6
, 13,5
, 7,8
, 20,5
, 9,4
, 4,10
, 1,11
, 20,7
, 4,10
, 17,16
, 13,18
, 13,13
, 20,3
, 5,4
, 11,18
, 4,10
, 2,18
, 11,9
, 4,11
, 5,6
, 2,20
, 8,7
, 15,10
, 19,3
, 14,16
, 1,20
, 5,16
, 16,18
, 17,20
, 19,7
, 3,15
, 8,2
, 11,5
, 16,19
, 20,11
, 8,15
, 15,1
]);